minizinc/sudoku_problems2/sudoku_p5.dzn
%
% sudoku_p5.dzn
% See http://www.hakank.org/minizinc/sudoku_gcc.mzn
% 
% This problem is problem 5 from
% Gecode's sudoku.cpp
% http://www.gecode.org/gecode-doc-latest/sudoku_8cpp-source.html
% 
x = array2d(1..n, 1..n, [   
% 5
% Hard one from http://www.cs.mu.oz.au/671/proj3/node5.html
  _,  _,  _,  _,  _,  3,  _,  6,  _,
  _,  _,  _,  _,  _,  _,  _,  1,  _,
  _,  9,  7,  5,  _,  _,  _,  8,  _,  _,  _,  _,  _,  9,  _,  2,  _,  _,
  _,  _,  8,  _,  7,  _,  4,  _,  _,
  _,  _,  3,  _,  6,  _,  _,  _,  _,  _,  1,  _,  _,  _,  2,  8,  9,  _,
  _,  4,  _,  _,  _,  _,  _,  _,  _,
  _,  5,  _,  1,  _,  _,  _,  _,  _,
]);

n = 18;


